10 19

7 12 3 11 11 2 13 13 6 12 10 13
12 2 5 5 15 9 2 15
6 2 4 14 7 10 10 15 5 12
5 13 2 14 17 15 1 3 12 4
12 3 1 8 3 13 17 4 6 8
9 14 12 12 6 14 18 3 14 9
4 10 3 9 10 7 12 4 16 11
16 13 2 14 18 4 10 11
15 8 13 11 6 10 7 11 3 8
1 11 9 13 2 8 6 10
